# Solution for model solving
# Objective value = 63
x[0,0] 0
y[0,0] 0
x[0,1] 0
y[0,1] 0
x[0,2] 0
y[0,2] 0
x[0,3] 1
y[0,3] 1
x[0,4] 1
y[0,4] 1
x[0,5] 1
y[0,5] 1
x[0,6] 1
y[0,6] 1
x[0,7] 1
y[0,7] 1
x[0,8] 1
y[0,8] 1
x[0,9] 1
y[0,9] 1
x[0,10] 1
y[0,10] 1
x[0,11] 1
y[0,11] 1
x[0,12] 1
y[0,12] 1
x[0,13] 1
y[0,13] 1
x[0,14] 1
y[0,14] 1
x[0,15] 1
y[0,15] 1
x[0,16] 1
y[0,16] 1
x[0,17] 1
y[0,17] 1
x[0,18] 1
y[0,18] 1
x[0,19] 1
y[0,19] 1
x[0,20] 1
y[0,20] 1
x[0,21] 1
y[0,21] 1
x[0,22] 1
y[0,22] 1
x[0,23] 1
y[0,23] 1
x[0,24] 1
y[0,24] 1
x[0,25] 1
y[0,25] 1
x[0,26] 1
y[0,26] 1
x[0,27] 1
y[0,27] 1
x[0,28] 1
y[0,28] 1
x[0,29] 1
y[0,29] 1
x[0,30] 1
y[0,30] 1
x[0,31] 1
y[0,31] 1
x[0,32] 1
y[0,32] 1
x[0,33] 1
y[0,33] 1
x[0,34] 1
y[0,34] 1
x[0,35] 1
y[0,35] 1
x[0,36] 1
y[0,36] 1
x[0,37] 1
y[0,37] 1
x[0,38] 1
y[0,38] 1
x[0,39] 1
y[0,39] 1
x[0,40] 1
y[0,40] 1
x[1,0] 0
y[1,0] 0
x[1,1] 0
y[1,1] 0
x[1,2] 0
y[1,2] 0
x[1,3] 0
y[1,3] 0
x[1,4] 0
y[1,4] 0
x[1,5] 0
y[1,5] 0
x[1,6] 0
y[1,6] 0
x[1,7] 0
y[1,7] 0
x[1,8] 0
y[1,8] 0
x[1,9] 0
y[1,9] 0
x[1,10] 0
y[1,10] 0
x[1,11] 0
y[1,11] 0
x[1,12] 0
y[1,12] 0
x[1,13] 0
y[1,13] 0
x[1,14] 0
y[1,14] 0
x[1,15] 0
y[1,15] 1
x[1,16] 0
y[1,16] 1
x[1,17] 0
y[1,17] 1
x[1,18] 0
y[1,18] 1
x[1,19] 0
y[1,19] 1
x[1,20] 0
y[1,20] 1
x[1,21] 0
y[1,21] 1
x[1,22] 0
y[1,22] 1
x[1,23] 0
y[1,23] 1
x[1,24] 0
y[1,24] 1
x[1,25] 0
y[1,25] 1
x[1,26] 0
y[1,26] 1
x[1,27] 0
y[1,27] 1
x[1,28] 0
y[1,28] 1
x[1,29] 0
y[1,29] 1
x[1,30] 0
y[1,30] 1
x[1,31] 1
y[1,31] 1
x[1,32] 1
y[1,32] 1
x[1,33] 1
y[1,33] 1
x[1,34] 1
y[1,34] 1
x[1,35] 1
y[1,35] 1
x[1,36] 1
y[1,36] 1
x[1,37] 1
y[1,37] 1
x[1,38] 1
y[1,38] 1
x[1,39] 1
y[1,39] 1
x[1,40] 1
y[1,40] 1
x[2,0] 0
y[2,0] 0
x[2,1] 0
y[2,1] 0
x[2,2] 0
y[2,2] 0
x[2,3] 0
y[2,3] 0
x[2,4] 0
y[2,4] 0
x[2,5] 0
y[2,5] 0
x[2,6] 0
y[2,6] 0
x[2,7] 0
y[2,7] 1
x[2,8] 0
y[2,8] 1
x[2,9] 0
y[2,9] 1
x[2,10] 0
y[2,10] 1
x[2,11] 0
y[2,11] 1
x[2,12] 0
y[2,12] 1
x[2,13] 0
y[2,13] 1
x[2,14] 0
y[2,14] 1
x[2,15] 0
y[2,15] 1
x[2,16] 0
y[2,16] 1
x[2,17] 0
y[2,17] 1
x[2,18] 1
y[2,18] 1
x[2,19] 1
y[2,19] 1
x[2,20] 1
y[2,20] 1
x[2,21] 1
y[2,21] 1
x[2,22] 1
y[2,22] 1
x[2,23] 1
y[2,23] 1
x[2,24] 1
y[2,24] 1
x[2,25] 1
y[2,25] 1
x[2,26] 1
y[2,26] 1
x[2,27] 1
y[2,27] 1
x[2,28] 1
y[2,28] 1
x[2,29] 1
y[2,29] 1
x[2,30] 1
y[2,30] 1
x[2,31] 1
y[2,31] 1
x[2,32] 1
y[2,32] 1
x[2,33] 1
y[2,33] 1
x[2,34] 1
y[2,34] 1
x[2,35] 1
y[2,35] 1
x[2,36] 1
y[2,36] 1
x[2,37] 1
y[2,37] 1
x[2,38] 1
y[2,38] 1
x[2,39] 1
y[2,39] 1
x[2,40] 1
y[2,40] 1
x[3,0] 0
y[3,0] 0
x[3,1] 0
y[3,1] 0
x[3,2] 0
y[3,2] 0
x[3,3] 0
y[3,3] 0
x[3,4] 0
y[3,4] 0
x[3,5] 0
y[3,5] 0
x[3,6] 0
y[3,6] 1
x[3,7] 0
y[3,7] 1
x[3,8] 0
y[3,8] 1
x[3,9] 0
y[3,9] 1
x[3,10] 0
y[3,10] 1
x[3,11] 0
y[3,11] 1
x[3,12] 0
y[3,12] 1
x[3,13] 0
y[3,13] 1
x[3,14] 0
y[3,14] 1
x[3,15] 0
y[3,15] 1
x[3,16] 0
y[3,16] 1
x[3,17] 0
y[3,17] 1
x[3,18] 0
y[3,18] 1
x[3,19] 0
y[3,19] 1
x[3,20] 0
y[3,20] 1
x[3,21] 0
y[3,21] 1
x[3,22] 0
y[3,22] 1
x[3,23] 0
y[3,23] 1
x[3,24] 0
y[3,24] 1
x[3,25] 0
y[3,25] 1
x[3,26] 0
y[3,26] 1
x[3,27] 0
y[3,27] 1
x[3,28] 0
y[3,28] 1
x[3,29] 0
y[3,29] 1
x[3,30] 0
y[3,30] 1
x[3,31] 0
y[3,31] 1
x[3,32] 1
y[3,32] 1
x[3,33] 1
y[3,33] 1
x[3,34] 1
y[3,34] 1
x[3,35] 1
y[3,35] 1
x[3,36] 1
y[3,36] 1
x[3,37] 1
y[3,37] 1
x[3,38] 1
y[3,38] 1
x[3,39] 1
y[3,39] 1
x[3,40] 1
y[3,40] 1
x[4,0] 1
y[4,0] 0
x[4,1] 1
y[4,1] 0
x[4,2] 1
y[4,2] 0
x[4,3] 1
y[4,3] 0
x[4,4] 1
y[4,4] 0
x[4,5] 1
y[4,5] 1
x[4,6] 1
y[4,6] 1
x[4,7] 1
y[4,7] 1
x[4,8] 1
y[4,8] 1
x[4,9] 1
y[4,9] 1
x[4,10] 1
y[4,10] 1
x[4,11] 1
y[4,11] 1
x[4,12] 1
y[4,12] 1
x[4,13] 1
y[4,13] 1
x[4,14] 1
y[4,14] 1
x[4,15] 1
y[4,15] 1
x[4,16] 1
y[4,16] 1
x[4,17] 1
y[4,17] 1
x[4,18] 1
y[4,18] 1
x[4,19] 1
y[4,19] 1
x[4,20] 1
y[4,20] 1
x[4,21] 1
y[4,21] 1
x[4,22] 1
y[4,22] 1
x[4,23] 1
y[4,23] 1
x[4,24] 1
y[4,24] 1
x[4,25] 1
y[4,25] 1
x[4,26] 1
y[4,26] 1
x[4,27] 1
y[4,27] 1
x[4,28] 1
y[4,28] 1
x[4,29] 1
y[4,29] 1
x[4,30] 1
y[4,30] 1
x[4,31] 1
y[4,31] 1
x[4,32] 1
y[4,32] 1
x[4,33] 1
y[4,33] 1
x[4,34] 1
y[4,34] 1
x[4,35] 1
y[4,35] 1
x[4,36] 1
y[4,36] 1
x[4,37] 1
y[4,37] 1
x[4,38] 1
y[4,38] 1
x[4,39] 1
y[4,39] 1
x[4,40] 1
y[4,40] 1
x[5,0] 0
y[5,0] 0
x[5,1] 0
y[5,1] 0
x[5,2] 0
y[5,2] 0
x[5,3] 0
y[5,3] 0
x[5,4] 0
y[5,4] 0
x[5,5] 0
y[5,5] 0
x[5,6] 0
y[5,6] 0
x[5,7] 0
y[5,7] 0
x[5,8] 0
y[5,8] 1
x[5,9] 0
y[5,9] 1
x[5,10] 0
y[5,10] 1
x[5,11] 0
y[5,11] 1
x[5,12] 0
y[5,12] 1
x[5,13] 0
y[5,13] 1
x[5,14] 0
y[5,14] 1
x[5,15] 0
y[5,15] 1
x[5,16] 0
y[5,16] 1
x[5,17] 0
y[5,17] 1
x[5,18] 0
y[5,18] 1
x[5,19] 0
y[5,19] 1
x[5,20] 0
y[5,20] 1
x[5,21] 0
y[5,21] 1
x[5,22] 0
y[5,22] 1
x[5,23] 0
y[5,23] 1
x[5,24] 0
y[5,24] 1
x[5,25] 0
y[5,25] 1
x[5,26] 0
y[5,26] 1
x[5,27] 0
y[5,27] 1
x[5,28] 0
y[5,28] 1
x[5,29] 0
y[5,29] 1
x[5,30] 1
y[5,30] 1
x[5,31] 1
y[5,31] 1
x[5,32] 1
y[5,32] 1
x[5,33] 1
y[5,33] 1
x[5,34] 1
y[5,34] 1
x[5,35] 1
y[5,35] 1
x[5,36] 1
y[5,36] 1
x[5,37] 1
y[5,37] 1
x[5,38] 1
y[5,38] 1
x[5,39] 1
y[5,39] 1
x[5,40] 1
y[5,40] 1
x[6,0] 0
y[6,0] 0
x[6,1] 0
y[6,1] 0
x[6,2] 0
y[6,2] 0
x[6,3] 0
y[6,3] 0
x[6,4] 0
y[6,4] 0
x[6,5] 0
y[6,5] 0
x[6,6] 0
y[6,6] 0
x[6,7] 0
y[6,7] 0
x[6,8] 0
y[6,8] 0
x[6,9] 0
y[6,9] 0
x[6,10] 0
y[6,10] 1
x[6,11] 0
y[6,11] 1
x[6,12] 0
y[6,12] 1
x[6,13] 0
y[6,13] 1
x[6,14] 0
y[6,14] 1
x[6,15] 0
y[6,15] 1
x[6,16] 0
y[6,16] 1
x[6,17] 0
y[6,17] 1
x[6,18] 0
y[6,18] 1
x[6,19] 0
y[6,19] 1
x[6,20] 0
y[6,20] 1
x[6,21] 0
y[6,21] 1
x[6,22] 0
y[6,22] 1
x[6,23] 0
y[6,23] 1
x[6,24] 0
y[6,24] 1
x[6,25] 0
y[6,25] 1
x[6,26] 0
y[6,26] 1
x[6,27] 0
y[6,27] 1
x[6,28] 0
y[6,28] 1
x[6,29] 0
y[6,29] 1
x[6,30] 0
y[6,30] 1
x[6,31] 0
y[6,31] 1
x[6,32] 0
y[6,32] 1
x[6,33] 1
y[6,33] 1
x[6,34] 1
y[6,34] 1
x[6,35] 1
y[6,35] 1
x[6,36] 1
y[6,36] 1
x[6,37] 1
y[6,37] 1
x[6,38] 1
y[6,38] 1
x[6,39] 1
y[6,39] 1
x[6,40] 1
y[6,40] 1
x[7,0] 0
y[7,0] 0
x[7,1] 0
y[7,1] 0
x[7,2] 0
y[7,2] 0
x[7,3] 0
y[7,3] 0
x[7,4] 0
y[7,4] 1
x[7,5] 0
y[7,5] 1
x[7,6] 0
y[7,6] 1
x[7,7] 0
y[7,7] 1
x[7,8] 0
y[7,8] 1
x[7,9] 0
y[7,9] 1
x[7,10] 0
y[7,10] 1
x[7,11] 0
y[7,11] 1
x[7,12] 0
y[7,12] 1
x[7,13] 0
y[7,13] 1
x[7,14] 0
y[7,14] 1
x[7,15] 0
y[7,15] 1
x[7,16] 0
y[7,16] 1
x[7,17] 0
y[7,17] 1
x[7,18] 0
y[7,18] 1
x[7,19] 0
y[7,19] 1
x[7,20] 0
y[7,20] 1
x[7,21] 0
y[7,21] 1
x[7,22] 0
y[7,22] 1
x[7,23] 0
y[7,23] 1
x[7,24] 0
y[7,24] 1
x[7,25] 0
y[7,25] 1
x[7,26] 0
y[7,26] 1
x[7,27] 0
y[7,27] 1
x[7,28] 0
y[7,28] 1
x[7,29] 0
y[7,29] 1
x[7,30] 0
y[7,30] 1
x[7,31] 0
y[7,31] 1
x[7,32] 0
y[7,32] 1
x[7,33] 0
y[7,33] 1
x[7,34] 0
y[7,34] 1
x[7,35] 0
y[7,35] 1
x[7,36] 0
y[7,36] 1
x[7,37] 0
y[7,37] 1
x[7,38] 0
y[7,38] 1
x[7,39] 0
y[7,39] 1
x[7,40] 1
y[7,40] 1
x[8,0] 0
y[8,0] 0
x[8,1] 0
y[8,1] 0
x[8,2] 0
y[8,2] 0
x[8,3] 0
y[8,3] 0
x[8,4] 0
y[8,4] 0
x[8,5] 0
y[8,5] 0
x[8,6] 0
y[8,6] 0
x[8,7] 0
y[8,7] 0
x[8,8] 0
y[8,8] 1
x[8,9] 0
y[8,9] 1
x[8,10] 0
y[8,10] 1
x[8,11] 0
y[8,11] 1
x[8,12] 0
y[8,12] 1
x[8,13] 0
y[8,13] 1
x[8,14] 0
y[8,14] 1
x[8,15] 0
y[8,15] 1
x[8,16] 0
y[8,16] 1
x[8,17] 0
y[8,17] 1
x[8,18] 0
y[8,18] 1
x[8,19] 0
y[8,19] 1
x[8,20] 0
y[8,20] 1
x[8,21] 0
y[8,21] 1
x[8,22] 0
y[8,22] 1
x[8,23] 0
y[8,23] 1
x[8,24] 0
y[8,24] 1
x[8,25] 0
y[8,25] 1
x[8,26] 0
y[8,26] 1
x[8,27] 0
y[8,27] 1
x[8,28] 0
y[8,28] 1
x[8,29] 0
y[8,29] 1
x[8,30] 0
y[8,30] 1
x[8,31] 0
y[8,31] 1
x[8,32] 0
y[8,32] 1
x[8,33] 0
y[8,33] 1
x[8,34] 0
y[8,34] 1
x[8,35] 0
y[8,35] 1
x[8,36] 0
y[8,36] 1
x[8,37] 0
y[8,37] 1
x[8,38] 1
y[8,38] 1
x[8,39] 1
y[8,39] 1
x[8,40] 1
y[8,40] 1
x[9,0] 0
y[9,0] 0
x[9,1] 0
y[9,1] 0
x[9,2] 0
y[9,2] 0
x[9,3] 0
y[9,3] 1
x[9,4] 0
y[9,4] 1
x[9,5] 0
y[9,5] 1
x[9,6] 1
y[9,6] 1
x[9,7] 1
y[9,7] 1
x[9,8] 1
y[9,8] 1
x[9,9] 1
y[9,9] 1
x[9,10] 1
y[9,10] 1
x[9,11] 1
y[9,11] 1
x[9,12] 1
y[9,12] 1
x[9,13] 1
y[9,13] 1
x[9,14] 1
y[9,14] 1
x[9,15] 1
y[9,15] 1
x[9,16] 1
y[9,16] 1
x[9,17] 1
y[9,17] 1
x[9,18] 1
y[9,18] 1
x[9,19] 1
y[9,19] 1
x[9,20] 1
y[9,20] 1
x[9,21] 1
y[9,21] 1
x[9,22] 1
y[9,22] 1
x[9,23] 1
y[9,23] 1
x[9,24] 1
y[9,24] 1
x[9,25] 1
y[9,25] 1
x[9,26] 1
y[9,26] 1
x[9,27] 1
y[9,27] 1
x[9,28] 1
y[9,28] 1
x[9,29] 1
y[9,29] 1
x[9,30] 1
y[9,30] 1
x[9,31] 1
y[9,31] 1
x[9,32] 1
y[9,32] 1
x[9,33] 1
y[9,33] 1
x[9,34] 1
y[9,34] 1
x[9,35] 1
y[9,35] 1
x[9,36] 1
y[9,36] 1
x[9,37] 1
y[9,37] 1
x[9,38] 1
y[9,38] 1
x[9,39] 1
y[9,39] 1
x[9,40] 1
y[9,40] 1
x[10,0] 0
y[10,0] 0
x[10,1] 0
y[10,1] 0
x[10,2] 0
y[10,2] 0
x[10,3] 0
y[10,3] 0
x[10,4] 0
y[10,4] 0
x[10,5] 0
y[10,5] 1
x[10,6] 0
y[10,6] 1
x[10,7] 0
y[10,7] 1
x[10,8] 0
y[10,8] 1
x[10,9] 0
y[10,9] 1
x[10,10] 0
y[10,10] 1
x[10,11] 0
y[10,11] 1
x[10,12] 0
y[10,12] 1
x[10,13] 0
y[10,13] 1
x[10,14] 0
y[10,14] 1
x[10,15] 0
y[10,15] 1
x[10,16] 0
y[10,16] 1
x[10,17] 0
y[10,17] 1
x[10,18] 0
y[10,18] 1
x[10,19] 0
y[10,19] 1
x[10,20] 0
y[10,20] 1
x[10,21] 0
y[10,21] 1
x[10,22] 0
y[10,22] 1
x[10,23] 0
y[10,23] 1
x[10,24] 0
y[10,24] 1
x[10,25] 0
y[10,25] 1
x[10,26] 0
y[10,26] 1
x[10,27] 0
y[10,27] 1
x[10,28] 0
y[10,28] 1
x[10,29] 0
y[10,29] 1
x[10,30] 0
y[10,30] 1
x[10,31] 0
y[10,31] 1
x[10,32] 0
y[10,32] 1
x[10,33] 0
y[10,33] 1
x[10,34] 0
y[10,34] 1
x[10,35] 0
y[10,35] 1
x[10,36] 0
y[10,36] 1
x[10,37] 0
y[10,37] 1
x[10,38] 1
y[10,38] 1
x[10,39] 1
y[10,39] 1
x[10,40] 1
y[10,40] 1
x[11,0] 0
y[11,0] 0
x[11,1] 0
y[11,1] 0
x[11,2] 0
y[11,2] 0
x[11,3] 0
y[11,3] 0
x[11,4] 0
y[11,4] 0
x[11,5] 0
y[11,5] 0
x[11,6] 0
y[11,6] 0
x[11,7] 0
y[11,7] 1
x[11,8] 0
y[11,8] 1
x[11,9] 0
y[11,9] 1
x[11,10] 0
y[11,10] 1
x[11,11] 0
y[11,11] 1
x[11,12] 0
y[11,12] 1
x[11,13] 0
y[11,13] 1
x[11,14] 0
y[11,14] 1
x[11,15] 0
y[11,15] 1
x[11,16] 0
y[11,16] 1
x[11,17] 0
y[11,17] 1
x[11,18] 0
y[11,18] 1
x[11,19] 0
y[11,19] 1
x[11,20] 0
y[11,20] 1
x[11,21] 0
y[11,21] 1
x[11,22] 0
y[11,22] 1
x[11,23] 0
y[11,23] 1
x[11,24] 0
y[11,24] 1
x[11,25] 0
y[11,25] 1
x[11,26] 0
y[11,26] 1
x[11,27] 0
y[11,27] 1
x[11,28] 0
y[11,28] 1
x[11,29] 0
y[11,29] 1
x[11,30] 0
y[11,30] 1
x[11,31] 0
y[11,31] 1
x[11,32] 0
y[11,32] 1
x[11,33] 0
y[11,33] 1
x[11,34] 0
y[11,34] 1
x[11,35] 0
y[11,35] 1
x[11,36] 0
y[11,36] 1
x[11,37] 1
y[11,37] 1
x[11,38] 1
y[11,38] 1
x[11,39] 1
y[11,39] 1
x[11,40] 1
y[11,40] 1
x[12,0] 0
y[12,0] 0
x[12,1] 0
y[12,1] 0
x[12,2] 0
y[12,2] 0
x[12,3] 0
y[12,3] 0
x[12,4] 1
y[12,4] 1
x[12,5] 1
y[12,5] 1
x[12,6] 1
y[12,6] 1
x[12,7] 1
y[12,7] 1
x[12,8] 1
y[12,8] 1
x[12,9] 1
y[12,9] 1
x[12,10] 1
y[12,10] 1
x[12,11] 1
y[12,11] 1
x[12,12] 1
y[12,12] 1
x[12,13] 1
y[12,13] 1
x[12,14] 1
y[12,14] 1
x[12,15] 1
y[12,15] 1
x[12,16] 1
y[12,16] 1
x[12,17] 1
y[12,17] 1
x[12,18] 1
y[12,18] 1
x[12,19] 1
y[12,19] 1
x[12,20] 1
y[12,20] 1
x[12,21] 1
y[12,21] 1
x[12,22] 1
y[12,22] 1
x[12,23] 1
y[12,23] 1
x[12,24] 1
y[12,24] 1
x[12,25] 1
y[12,25] 1
x[12,26] 1
y[12,26] 1
x[12,27] 1
y[12,27] 1
x[12,28] 1
y[12,28] 1
x[12,29] 1
y[12,29] 1
x[12,30] 1
y[12,30] 1
x[12,31] 1
y[12,31] 1
x[12,32] 1
y[12,32] 1
x[12,33] 1
y[12,33] 1
x[12,34] 1
y[12,34] 1
x[12,35] 1
y[12,35] 1
x[12,36] 1
y[12,36] 1
x[12,37] 1
y[12,37] 1
x[12,38] 1
y[12,38] 1
x[12,39] 1
y[12,39] 1
x[12,40] 1
y[12,40] 1
x[13,0] 0
y[13,0] 0
x[13,1] 0
y[13,1] 0
x[13,2] 0
y[13,2] 0
x[13,3] 0
y[13,3] 0
x[13,4] 0
y[13,4] 0
x[13,5] 0
y[13,5] 1
x[13,6] 1
y[13,6] 1
x[13,7] 1
y[13,7] 1
x[13,8] 1
y[13,8] 1
x[13,9] 1
y[13,9] 1
x[13,10] 1
y[13,10] 1
x[13,11] 1
y[13,11] 1
x[13,12] 1
y[13,12] 1
x[13,13] 1
y[13,13] 1
x[13,14] 1
y[13,14] 1
x[13,15] 1
y[13,15] 1
x[13,16] 1
y[13,16] 1
x[13,17] 1
y[13,17] 1
x[13,18] 1
y[13,18] 1
x[13,19] 1
y[13,19] 1
x[13,20] 1
y[13,20] 1
x[13,21] 1
y[13,21] 1
x[13,22] 1
y[13,22] 1
x[13,23] 1
y[13,23] 1
x[13,24] 1
y[13,24] 1
x[13,25] 1
y[13,25] 1
x[13,26] 1
y[13,26] 1
x[13,27] 1
y[13,27] 1
x[13,28] 1
y[13,28] 1
x[13,29] 1
y[13,29] 1
x[13,30] 1
y[13,30] 1
x[13,31] 1
y[13,31] 1
x[13,32] 1
y[13,32] 1
x[13,33] 1
y[13,33] 1
x[13,34] 1
y[13,34] 1
x[13,35] 1
y[13,35] 1
x[13,36] 1
y[13,36] 1
x[13,37] 1
y[13,37] 1
x[13,38] 1
y[13,38] 1
x[13,39] 1
y[13,39] 1
x[13,40] 1
y[13,40] 1
x[14,0] 0
y[14,0] 0
x[14,1] 0
y[14,1] 0
x[14,2] 0
y[14,2] 0
x[14,3] 0
y[14,3] 0
x[14,4] 0
y[14,4] 0
x[14,5] 0
y[14,5] 0
x[14,6] 0
y[14,6] 1
x[14,7] 0
y[14,7] 1
x[14,8] 0
y[14,8] 1
x[14,9] 0
y[14,9] 1
x[14,10] 0
y[14,10] 1
x[14,11] 0
y[14,11] 1
x[14,12] 1
y[14,12] 1
x[14,13] 1
y[14,13] 1
x[14,14] 1
y[14,14] 1
x[14,15] 1
y[14,15] 1
x[14,16] 1
y[14,16] 1
x[14,17] 1
y[14,17] 1
x[14,18] 1
y[14,18] 1
x[14,19] 1
y[14,19] 1
x[14,20] 1
y[14,20] 1
x[14,21] 1
y[14,21] 1
x[14,22] 1
y[14,22] 1
x[14,23] 1
y[14,23] 1
x[14,24] 1
y[14,24] 1
x[14,25] 1
y[14,25] 1
x[14,26] 1
y[14,26] 1
x[14,27] 1
y[14,27] 1
x[14,28] 1
y[14,28] 1
x[14,29] 1
y[14,29] 1
x[14,30] 1
y[14,30] 1
x[14,31] 1
y[14,31] 1
x[14,32] 1
y[14,32] 1
x[14,33] 1
y[14,33] 1
x[14,34] 1
y[14,34] 1
x[14,35] 1
y[14,35] 1
x[14,36] 1
y[14,36] 1
x[14,37] 1
y[14,37] 1
x[14,38] 1
y[14,38] 1
x[14,39] 1
y[14,39] 1
x[14,40] 1
y[14,40] 1
x[15,0] 0
y[15,0] 0
x[15,1] 0
y[15,1] 0
x[15,2] 0
y[15,2] 0
x[15,3] 0
y[15,3] 0
x[15,4] 0
y[15,4] 0
x[15,5] 0
y[15,5] 0
x[15,6] 0
y[15,6] 1
x[15,7] 0
y[15,7] 1
x[15,8] 0
y[15,8] 1
x[15,9] 0
y[15,9] 1
x[15,10] 0
y[15,10] 1
x[15,11] 0
y[15,11] 1
x[15,12] 0
y[15,12] 1
x[15,13] 0
y[15,13] 1
x[15,14] 0
y[15,14] 1
x[15,15] 0
y[15,15] 1
x[15,16] 0
y[15,16] 1
x[15,17] 0
y[15,17] 1
x[15,18] 1
y[15,18] 1
x[15,19] 1
y[15,19] 1
x[15,20] 1
y[15,20] 1
x[15,21] 1
y[15,21] 1
x[15,22] 1
y[15,22] 1
x[15,23] 1
y[15,23] 1
x[15,24] 1
y[15,24] 1
x[15,25] 1
y[15,25] 1
x[15,26] 1
y[15,26] 1
x[15,27] 1
y[15,27] 1
x[15,28] 1
y[15,28] 1
x[15,29] 1
y[15,29] 1
x[15,30] 1
y[15,30] 1
x[15,31] 1
y[15,31] 1
x[15,32] 1
y[15,32] 1
x[15,33] 1
y[15,33] 1
x[15,34] 1
y[15,34] 1
x[15,35] 1
y[15,35] 1
x[15,36] 1
y[15,36] 1
x[15,37] 1
y[15,37] 1
x[15,38] 1
y[15,38] 1
x[15,39] 1
y[15,39] 1
x[15,40] 1
y[15,40] 1
x[16,0] 0
y[16,0] 0
x[16,1] 0
y[16,1] 0
x[16,2] 0
y[16,2] 0
x[16,3] 0
y[16,3] 0
x[16,4] 0
y[16,4] 0
x[16,5] 1
y[16,5] 1
x[16,6] 1
y[16,6] 1
x[16,7] 1
y[16,7] 1
x[16,8] 1
y[16,8] 1
x[16,9] 1
y[16,9] 1
x[16,10] 1
y[16,10] 1
x[16,11] 1
y[16,11] 1
x[16,12] 1
y[16,12] 1
x[16,13] 1
y[16,13] 1
x[16,14] 1
y[16,14] 1
x[16,15] 1
y[16,15] 1
x[16,16] 1
y[16,16] 1
x[16,17] 1
y[16,17] 1
x[16,18] 1
y[16,18] 1
x[16,19] 1
y[16,19] 1
x[16,20] 1
y[16,20] 1
x[16,21] 1
y[16,21] 1
x[16,22] 1
y[16,22] 1
x[16,23] 1
y[16,23] 1
x[16,24] 1
y[16,24] 1
x[16,25] 1
y[16,25] 1
x[16,26] 1
y[16,26] 1
x[16,27] 1
y[16,27] 1
x[16,28] 1
y[16,28] 1
x[16,29] 1
y[16,29] 1
x[16,30] 1
y[16,30] 1
x[16,31] 1
y[16,31] 1
x[16,32] 1
y[16,32] 1
x[16,33] 1
y[16,33] 1
x[16,34] 1
y[16,34] 1
x[16,35] 1
y[16,35] 1
x[16,36] 1
y[16,36] 1
x[16,37] 1
y[16,37] 1
x[16,38] 1
y[16,38] 1
x[16,39] 1
y[16,39] 1
x[16,40] 1
y[16,40] 1
x[17,0] 0
y[17,0] 0
x[17,1] 0
y[17,1] 0
x[17,2] 0
y[17,2] 0
x[17,3] 0
y[17,3] 0
x[17,4] 0
y[17,4] 0
x[17,5] 0
y[17,5] 0
x[17,6] 0
y[17,6] 0
x[17,7] 0
y[17,7] 0
x[17,8] 0
y[17,8] 1
x[17,9] 0
y[17,9] 1
x[17,10] 0
y[17,10] 1
x[17,11] 0
y[17,11] 1
x[17,12] 0
y[17,12] 1
x[17,13] 0
y[17,13] 1
x[17,14] 0
y[17,14] 1
x[17,15] 0
y[17,15] 1
x[17,16] 0
y[17,16] 1
x[17,17] 0
y[17,17] 1
x[17,18] 0
y[17,18] 1
x[17,19] 0
y[17,19] 1
x[17,20] 0
y[17,20] 1
x[17,21] 0
y[17,21] 1
x[17,22] 0
y[17,22] 1
x[17,23] 0
y[17,23] 1
x[17,24] 0
y[17,24] 1
x[17,25] 0
y[17,25] 1
x[17,26] 0
y[17,26] 1
x[17,27] 0
y[17,27] 1
x[17,28] 0
y[17,28] 1
x[17,29] 0
y[17,29] 1
x[17,30] 0
y[17,30] 1
x[17,31] 0
y[17,31] 1
x[17,32] 0
y[17,32] 1
x[17,33] 0
y[17,33] 1
x[17,34] 0
y[17,34] 1
x[17,35] 0
y[17,35] 1
x[17,36] 0
y[17,36] 1
x[17,37] 0
y[17,37] 1
x[17,38] 0
y[17,38] 1
x[17,39] 0
y[17,39] 1
x[17,40] 1
y[17,40] 1
x[18,0] 0
y[18,0] 0
x[18,1] 0
y[18,1] 0
x[18,2] 0
y[18,2] 0
x[18,3] 0
y[18,3] 0
x[18,4] 0
y[18,4] 0
x[18,5] 0
y[18,5] 1
x[18,6] 0
y[18,6] 1
x[18,7] 0
y[18,7] 1
x[18,8] 0
y[18,8] 1
x[18,9] 0
y[18,9] 1
x[18,10] 0
y[18,10] 1
x[18,11] 0
y[18,11] 1
x[18,12] 0
y[18,12] 1
x[18,13] 0
y[18,13] 1
x[18,14] 0
y[18,14] 1
x[18,15] 0
y[18,15] 1
x[18,16] 0
y[18,16] 1
x[18,17] 0
y[18,17] 1
x[18,18] 1
y[18,18] 1
x[18,19] 1
y[18,19] 1
x[18,20] 1
y[18,20] 1
x[18,21] 1
y[18,21] 1
x[18,22] 1
y[18,22] 1
x[18,23] 1
y[18,23] 1
x[18,24] 1
y[18,24] 1
x[18,25] 1
y[18,25] 1
x[18,26] 1
y[18,26] 1
x[18,27] 1
y[18,27] 1
x[18,28] 1
y[18,28] 1
x[18,29] 1
y[18,29] 1
x[18,30] 1
y[18,30] 1
x[18,31] 1
y[18,31] 1
x[18,32] 1
y[18,32] 1
x[18,33] 1
y[18,33] 1
x[18,34] 1
y[18,34] 1
x[18,35] 1
y[18,35] 1
x[18,36] 1
y[18,36] 1
x[18,37] 1
y[18,37] 1
x[18,38] 1
y[18,38] 1
x[18,39] 1
y[18,39] 1
x[18,40] 1
y[18,40] 1
x[19,0] 0
y[19,0] 0
x[19,1] 0
y[19,1] 0
x[19,2] 0
y[19,2] 0
x[19,3] 0
y[19,3] 0
x[19,4] 0
y[19,4] 0
x[19,5] 0
y[19,5] 1
x[19,6] 0
y[19,6] 1
x[19,7] 0
y[19,7] 1
x[19,8] 0
y[19,8] 1
x[19,9] 0
y[19,9] 1
x[19,10] 0
y[19,10] 1
x[19,11] 0
y[19,11] 1
x[19,12] 0
y[19,12] 1
x[19,13] 0
y[19,13] 1
x[19,14] 0
y[19,14] 1
x[19,15] 0
y[19,15] 1
x[19,16] 0
y[19,16] 1
x[19,17] 0
y[19,17] 1
x[19,18] 0
y[19,18] 1
x[19,19] 0
y[19,19] 1
x[19,20] 0
y[19,20] 1
x[19,21] 0
y[19,21] 1
x[19,22] 0
y[19,22] 1
x[19,23] 0
y[19,23] 1
x[19,24] 0
y[19,24] 1
x[19,25] 0
y[19,25] 1
x[19,26] 0
y[19,26] 1
x[19,27] 0
y[19,27] 1
x[19,28] 0
y[19,28] 1
x[19,29] 0
y[19,29] 1
x[19,30] 0
y[19,30] 1
x[19,31] 0
y[19,31] 1
x[19,32] 0
y[19,32] 1
x[19,33] 0
y[19,33] 1
x[19,34] 0
y[19,34] 1
x[19,35] 0
y[19,35] 1
x[19,36] 0
y[19,36] 1
x[19,37] 0
y[19,37] 1
x[19,38] 0
y[19,38] 1
x[19,39] 1
y[19,39] 1
x[19,40] 1
y[19,40] 1
x[20,0] 1
y[20,0] 0
x[20,1] 1
y[20,1] 0
x[20,2] 1
y[20,2] 0
x[20,3] 1
y[20,3] 0
x[20,4] 1
y[20,4] 0
x[20,5] 1
y[20,5] 1
x[20,6] 1
y[20,6] 1
x[20,7] 1
y[20,7] 1
x[20,8] 1
y[20,8] 1
x[20,9] 1
y[20,9] 1
x[20,10] 1
y[20,10] 1
x[20,11] 1
y[20,11] 1
x[20,12] 1
y[20,12] 1
x[20,13] 1
y[20,13] 1
x[20,14] 1
y[20,14] 1
x[20,15] 1
y[20,15] 1
x[20,16] 1
y[20,16] 1
x[20,17] 1
y[20,17] 1
x[20,18] 1
y[20,18] 1
x[20,19] 1
y[20,19] 1
x[20,20] 1
y[20,20] 1
x[20,21] 1
y[20,21] 1
x[20,22] 1
y[20,22] 1
x[20,23] 1
y[20,23] 1
x[20,24] 1
y[20,24] 1
x[20,25] 1
y[20,25] 1
x[20,26] 1
y[20,26] 1
x[20,27] 1
y[20,27] 1
x[20,28] 1
y[20,28] 1
x[20,29] 1
y[20,29] 1
x[20,30] 1
y[20,30] 1
x[20,31] 1
y[20,31] 1
x[20,32] 1
y[20,32] 1
x[20,33] 1
y[20,33] 1
x[20,34] 1
y[20,34] 1
x[20,35] 1
y[20,35] 1
x[20,36] 1
y[20,36] 1
x[20,37] 1
y[20,37] 1
x[20,38] 1
y[20,38] 1
x[20,39] 1
y[20,39] 1
x[20,40] 1
y[20,40] 1
x[21,0] 0
y[21,0] 0
x[21,1] 0
y[21,1] 0
x[21,2] 0
y[21,2] 0
x[21,3] 0
y[21,3] 0
x[21,4] 0
y[21,4] 0
x[21,5] 0
y[21,5] 0
x[21,6] 0
y[21,6] 0
x[21,7] 0
y[21,7] 0
x[21,8] 0
y[21,8] 0
x[21,9] 0
y[21,9] 0
x[21,10] 0
y[21,10] 0
x[21,11] 0
y[21,11] 0
x[21,12] 0
y[21,12] 0
x[21,13] 0
y[21,13] 0
x[21,14] 0
y[21,14] 0
x[21,15] 0
y[21,15] 0
x[21,16] 0
y[21,16] 0
x[21,17] 0
y[21,17] 1
x[21,18] 0
y[21,18] 1
x[21,19] 0
y[21,19] 1
x[21,20] 0
y[21,20] 1
x[21,21] 0
y[21,21] 1
x[21,22] 0
y[21,22] 1
x[21,23] 0
y[21,23] 1
x[21,24] 0
y[21,24] 1
x[21,25] 0
y[21,25] 1
x[21,26] 0
y[21,26] 1
x[21,27] 0
y[21,27] 1
x[21,28] 0
y[21,28] 1
x[21,29] 0
y[21,29] 1
x[21,30] 1
y[21,30] 1
x[21,31] 1
y[21,31] 1
x[21,32] 1
y[21,32] 1
x[21,33] 1
y[21,33] 1
x[21,34] 1
y[21,34] 1
x[21,35] 1
y[21,35] 1
x[21,36] 1
y[21,36] 1
x[21,37] 1
y[21,37] 1
x[21,38] 1
y[21,38] 1
x[21,39] 1
y[21,39] 1
x[21,40] 1
y[21,40] 1
x[22,0] 0
y[22,0] 0
x[22,1] 0
y[22,1] 0
x[22,2] 0
y[22,2] 0
x[22,3] 0
y[22,3] 0
x[22,4] 0
y[22,4] 0
x[22,5] 0
y[22,5] 0
x[22,6] 0
y[22,6] 0
x[22,7] 0
y[22,7] 1
x[22,8] 0
y[22,8] 1
x[22,9] 0
y[22,9] 1
x[22,10] 0
y[22,10] 1
x[22,11] 0
y[22,11] 1
x[22,12] 0
y[22,12] 1
x[22,13] 0
y[22,13] 1
x[22,14] 0
y[22,14] 1
x[22,15] 0
y[22,15] 1
x[22,16] 0
y[22,16] 1
x[22,17] 0
y[22,17] 1
x[22,18] 0
y[22,18] 1
x[22,19] 0
y[22,19] 1
x[22,20] 0
y[22,20] 1
x[22,21] 0
y[22,21] 1
x[22,22] 0
y[22,22] 1
x[22,23] 0
y[22,23] 1
x[22,24] 0
y[22,24] 1
x[22,25] 0
y[22,25] 1
x[22,26] 0
y[22,26] 1
x[22,27] 0
y[22,27] 1
x[22,28] 0
y[22,28] 1
x[22,29] 0
y[22,29] 1
x[22,30] 0
y[22,30] 1
x[22,31] 1
y[22,31] 1
x[22,32] 1
y[22,32] 1
x[22,33] 1
y[22,33] 1
x[22,34] 1
y[22,34] 1
x[22,35] 1
y[22,35] 1
x[22,36] 1
y[22,36] 1
x[22,37] 1
y[22,37] 1
x[22,38] 1
y[22,38] 1
x[22,39] 1
y[22,39] 1
x[22,40] 1
y[22,40] 1
x[23,0] 0
y[23,0] 0
x[23,1] 0
y[23,1] 0
x[23,2] 0
y[23,2] 0
x[23,3] 0
y[23,3] 0
x[23,4] 0
y[23,4] 0
x[23,5] 0
y[23,5] 0
x[23,6] 0
y[23,6] 0
x[23,7] 0
y[23,7] 1
x[23,8] 0
y[23,8] 1
x[23,9] 0
y[23,9] 1
x[23,10] 0
y[23,10] 1
x[23,11] 0
y[23,11] 1
x[23,12] 0
y[23,12] 1
x[23,13] 0
y[23,13] 1
x[23,14] 0
y[23,14] 1
x[23,15] 0
y[23,15] 1
x[23,16] 0
y[23,16] 1
x[23,17] 0
y[23,17] 1
x[23,18] 0
y[23,18] 1
x[23,19] 0
y[23,19] 1
x[23,20] 0
y[23,20] 1
x[23,21] 0
y[23,21] 1
x[23,22] 0
y[23,22] 1
x[23,23] 0
y[23,23] 1
x[23,24] 0
y[23,24] 1
x[23,25] 0
y[23,25] 1
x[23,26] 0
y[23,26] 1
x[23,27] 0
y[23,27] 1
x[23,28] 0
y[23,28] 1
x[23,29] 0
y[23,29] 1
x[23,30] 1
y[23,30] 1
x[23,31] 1
y[23,31] 1
x[23,32] 1
y[23,32] 1
x[23,33] 1
y[23,33] 1
x[23,34] 1
y[23,34] 1
x[23,35] 1
y[23,35] 1
x[23,36] 1
y[23,36] 1
x[23,37] 1
y[23,37] 1
x[23,38] 1
y[23,38] 1
x[23,39] 1
y[23,39] 1
x[23,40] 1
y[23,40] 1
x[24,0] 0
y[24,0] 0
x[24,1] 0
y[24,1] 0
x[24,2] 0
y[24,2] 0
x[24,3] 0
y[24,3] 0
x[24,4] 0
y[24,4] 0
x[24,5] 0
y[24,5] 0
x[24,6] 0
y[24,6] 0
x[24,7] 0
y[24,7] 1
x[24,8] 0
y[24,8] 1
x[24,9] 0
y[24,9] 1
x[24,10] 0
y[24,10] 1
x[24,11] 0
y[24,11] 1
x[24,12] 0
y[24,12] 1
x[24,13] 0
y[24,13] 1
x[24,14] 0
y[24,14] 1
x[24,15] 0
y[24,15] 1
x[24,16] 0
y[24,16] 1
x[24,17] 0
y[24,17] 1
x[24,18] 0
y[24,18] 1
x[24,19] 0
y[24,19] 1
x[24,20] 0
y[24,20] 1
x[24,21] 0
y[24,21] 1
x[24,22] 0
y[24,22] 1
x[24,23] 0
y[24,23] 1
x[24,24] 0
y[24,24] 1
x[24,25] 0
y[24,25] 1
x[24,26] 0
y[24,26] 1
x[24,27] 0
y[24,27] 1
x[24,28] 0
y[24,28] 1
x[24,29] 0
y[24,29] 1
x[24,30] 0
y[24,30] 1
x[24,31] 1
y[24,31] 1
x[24,32] 1
y[24,32] 1
x[24,33] 1
y[24,33] 1
x[24,34] 1
y[24,34] 1
x[24,35] 1
y[24,35] 1
x[24,36] 1
y[24,36] 1
x[24,37] 1
y[24,37] 1
x[24,38] 1
y[24,38] 1
x[24,39] 1
y[24,39] 1
x[24,40] 1
y[24,40] 1
x[25,0] 0
y[25,0] 0
x[25,1] 0
y[25,1] 0
x[25,2] 0
y[25,2] 0
x[25,3] 0
y[25,3] 0
x[25,4] 0
y[25,4] 0
x[25,5] 0
y[25,5] 0
x[25,6] 0
y[25,6] 0
x[25,7] 1
y[25,7] 1
x[25,8] 1
y[25,8] 1
x[25,9] 1
y[25,9] 1
x[25,10] 1
y[25,10] 1
x[25,11] 1
y[25,11] 1
x[25,12] 1
y[25,12] 1
x[25,13] 1
y[25,13] 1
x[25,14] 1
y[25,14] 1
x[25,15] 1
y[25,15] 1
x[25,16] 1
y[25,16] 1
x[25,17] 1
y[25,17] 1
x[25,18] 1
y[25,18] 1
x[25,19] 1
y[25,19] 1
x[25,20] 1
y[25,20] 1
x[25,21] 1
y[25,21] 1
x[25,22] 1
y[25,22] 1
x[25,23] 1
y[25,23] 1
x[25,24] 1
y[25,24] 1
x[25,25] 1
y[25,25] 1
x[25,26] 1
y[25,26] 1
x[25,27] 1
y[25,27] 1
x[25,28] 1
y[25,28] 1
x[25,29] 1
y[25,29] 1
x[25,30] 1
y[25,30] 1
x[25,31] 1
y[25,31] 1
x[25,32] 1
y[25,32] 1
x[25,33] 1
y[25,33] 1
x[25,34] 1
y[25,34] 1
x[25,35] 1
y[25,35] 1
x[25,36] 1
y[25,36] 1
x[25,37] 1
y[25,37] 1
x[25,38] 1
y[25,38] 1
x[25,39] 1
y[25,39] 1
x[25,40] 1
y[25,40] 1
x[26,0] 0
y[26,0] 0
x[26,1] 0
y[26,1] 0
x[26,2] 0
y[26,2] 0
x[26,3] 0
y[26,3] 0
x[26,4] 0
y[26,4] 0
x[26,5] 0
y[26,5] 0
x[26,6] 0
y[26,6] 0
x[26,7] 0
y[26,7] 0
x[26,8] 0
y[26,8] 0
x[26,9] 0
y[26,9] 0
x[26,10] 0
y[26,10] 0
x[26,11] 0
y[26,11] 0
x[26,12] 0
y[26,12] 0
x[26,13] 0
y[26,13] 0
x[26,14] 0
y[26,14] 0
x[26,15] 0
y[26,15] 0
x[26,16] 0
y[26,16] 0
x[26,17] 0
y[26,17] 0
x[26,18] 0
y[26,18] 0
x[26,19] 0
y[26,19] 1
x[26,20] 0
y[26,20] 1
x[26,21] 0
y[26,21] 1
x[26,22] 0
y[26,22] 1
x[26,23] 0
y[26,23] 1
x[26,24] 0
y[26,24] 1
x[26,25] 0
y[26,25] 1
x[26,26] 0
y[26,26] 1
x[26,27] 0
y[26,27] 1
x[26,28] 0
y[26,28] 1
x[26,29] 1
y[26,29] 1
x[26,30] 1
y[26,30] 1
x[26,31] 1
y[26,31] 1
x[26,32] 1
y[26,32] 1
x[26,33] 1
y[26,33] 1
x[26,34] 1
y[26,34] 1
x[26,35] 1
y[26,35] 1
x[26,36] 1
y[26,36] 1
x[26,37] 1
y[26,37] 1
x[26,38] 1
y[26,38] 1
x[26,39] 1
y[26,39] 1
x[26,40] 1
y[26,40] 1
x[27,0] 0
y[27,0] 0
x[27,1] 0
y[27,1] 0
x[27,2] 0
y[27,2] 0
x[27,3] 0
y[27,3] 0
x[27,4] 1
y[27,4] 1
x[27,5] 1
y[27,5] 1
x[27,6] 1
y[27,6] 1
x[27,7] 1
y[27,7] 1
x[27,8] 1
y[27,8] 1
x[27,9] 1
y[27,9] 1
x[27,10] 1
y[27,10] 1
x[27,11] 1
y[27,11] 1
x[27,12] 1
y[27,12] 1
x[27,13] 1
y[27,13] 1
x[27,14] 1
y[27,14] 1
x[27,15] 1
y[27,15] 1
x[27,16] 1
y[27,16] 1
x[27,17] 1
y[27,17] 1
x[27,18] 1
y[27,18] 1
x[27,19] 1
y[27,19] 1
x[27,20] 1
y[27,20] 1
x[27,21] 1
y[27,21] 1
x[27,22] 1
y[27,22] 1
x[27,23] 1
y[27,23] 1
x[27,24] 1
y[27,24] 1
x[27,25] 1
y[27,25] 1
x[27,26] 1
y[27,26] 1
x[27,27] 1
y[27,27] 1
x[27,28] 1
y[27,28] 1
x[27,29] 1
y[27,29] 1
x[27,30] 1
y[27,30] 1
x[27,31] 1
y[27,31] 1
x[27,32] 1
y[27,32] 1
x[27,33] 1
y[27,33] 1
x[27,34] 1
y[27,34] 1
x[27,35] 1
y[27,35] 1
x[27,36] 1
y[27,36] 1
x[27,37] 1
y[27,37] 1
x[27,38] 1
y[27,38] 1
x[27,39] 1
y[27,39] 1
x[27,40] 1
y[27,40] 1
x[28,0] 0
y[28,0] 0
x[28,1] 0
y[28,1] 0
x[28,2] 0
y[28,2] 0
x[28,3] 0
y[28,3] 0
x[28,4] 0
y[28,4] 0
x[28,5] 0
y[28,5] 0
x[28,6] 0
y[28,6] 0
x[28,7] 1
y[28,7] 1
x[28,8] 1
y[28,8] 1
x[28,9] 1
y[28,9] 1
x[28,10] 1
y[28,10] 1
x[28,11] 1
y[28,11] 1
x[28,12] 1
y[28,12] 1
x[28,13] 1
y[28,13] 1
x[28,14] 1
y[28,14] 1
x[28,15] 1
y[28,15] 1
x[28,16] 1
y[28,16] 1
x[28,17] 1
y[28,17] 1
x[28,18] 1
y[28,18] 1
x[28,19] 1
y[28,19] 1
x[28,20] 1
y[28,20] 1
x[28,21] 1
y[28,21] 1
x[28,22] 1
y[28,22] 1
x[28,23] 1
y[28,23] 1
x[28,24] 1
y[28,24] 1
x[28,25] 1
y[28,25] 1
x[28,26] 1
y[28,26] 1
x[28,27] 1
y[28,27] 1
x[28,28] 1
y[28,28] 1
x[28,29] 1
y[28,29] 1
x[28,30] 1
y[28,30] 1
x[28,31] 1
y[28,31] 1
x[28,32] 1
y[28,32] 1
x[28,33] 1
y[28,33] 1
x[28,34] 1
y[28,34] 1
x[28,35] 1
y[28,35] 1
x[28,36] 1
y[28,36] 1
x[28,37] 1
y[28,37] 1
x[28,38] 1
y[28,38] 1
x[28,39] 1
y[28,39] 1
x[28,40] 1
y[28,40] 1
x[29,0] 0
y[29,0] 0
x[29,1] 0
y[29,1] 0
x[29,2] 0
y[29,2] 0
x[29,3] 0
y[29,3] 0
x[29,4] 0
y[29,4] 0
x[29,5] 0
y[29,5] 0
x[29,6] 0
y[29,6] 0
x[29,7] 1
y[29,7] 1
x[29,8] 1
y[29,8] 1
x[29,9] 1
y[29,9] 1
x[29,10] 1
y[29,10] 1
x[29,11] 1
y[29,11] 1
x[29,12] 1
y[29,12] 1
x[29,13] 1
y[29,13] 1
x[29,14] 1
y[29,14] 1
x[29,15] 1
y[29,15] 1
x[29,16] 1
y[29,16] 1
x[29,17] 1
y[29,17] 1
x[29,18] 1
y[29,18] 1
x[29,19] 1
y[29,19] 1
x[29,20] 1
y[29,20] 1
x[29,21] 1
y[29,21] 1
x[29,22] 1
y[29,22] 1
x[29,23] 1
y[29,23] 1
x[29,24] 1
y[29,24] 1
x[29,25] 1
y[29,25] 1
x[29,26] 1
y[29,26] 1
x[29,27] 1
y[29,27] 1
x[29,28] 1
y[29,28] 1
x[29,29] 1
y[29,29] 1
x[29,30] 1
y[29,30] 1
x[29,31] 1
y[29,31] 1
x[29,32] 1
y[29,32] 1
x[29,33] 1
y[29,33] 1
x[29,34] 1
y[29,34] 1
x[29,35] 1
y[29,35] 1
x[29,36] 1
y[29,36] 1
x[29,37] 1
y[29,37] 1
x[29,38] 1
y[29,38] 1
x[29,39] 1
y[29,39] 1
x[29,40] 1
y[29,40] 1
x[30,0] 0
y[30,0] 0
x[30,1] 0
y[30,1] 0
x[30,2] 0
y[30,2] 0
x[30,3] 0
y[30,3] 0
x[30,4] 0
y[30,4] 0
x[30,5] 0
y[30,5] 0
x[30,6] 0
y[30,6] 1
x[30,7] 1
y[30,7] 1
x[30,8] 1
y[30,8] 1
x[30,9] 1
y[30,9] 1
x[30,10] 1
y[30,10] 1
x[30,11] 1
y[30,11] 1
x[30,12] 1
y[30,12] 1
x[30,13] 1
y[30,13] 1
x[30,14] 1
y[30,14] 1
x[30,15] 1
y[30,15] 1
x[30,16] 1
y[30,16] 1
x[30,17] 1
y[30,17] 1
x[30,18] 1
y[30,18] 1
x[30,19] 1
y[30,19] 1
x[30,20] 1
y[30,20] 1
x[30,21] 1
y[30,21] 1
x[30,22] 1
y[30,22] 1
x[30,23] 1
y[30,23] 1
x[30,24] 1
y[30,24] 1
x[30,25] 1
y[30,25] 1
x[30,26] 1
y[30,26] 1
x[30,27] 1
y[30,27] 1
x[30,28] 1
y[30,28] 1
x[30,29] 1
y[30,29] 1
x[30,30] 1
y[30,30] 1
x[30,31] 1
y[30,31] 1
x[30,32] 1
y[30,32] 1
x[30,33] 1
y[30,33] 1
x[30,34] 1
y[30,34] 1
x[30,35] 1
y[30,35] 1
x[30,36] 1
y[30,36] 1
x[30,37] 1
y[30,37] 1
x[30,38] 1
y[30,38] 1
x[30,39] 1
y[30,39] 1
x[30,40] 1
y[30,40] 1
x[31,0] 0
y[31,0] 0
x[31,1] 0
y[31,1] 0
x[31,2] 0
y[31,2] 0
x[31,3] 0
y[31,3] 0
x[31,4] 0
y[31,4] 1
x[31,5] 0
y[31,5] 1
x[31,6] 0
y[31,6] 1
x[31,7] 0
y[31,7] 1
x[31,8] 0
y[31,8] 1
x[31,9] 1
y[31,9] 1
x[31,10] 1
y[31,10] 1
x[31,11] 1
y[31,11] 1
x[31,12] 1
y[31,12] 1
x[31,13] 1
y[31,13] 1
x[31,14] 1
y[31,14] 1
x[31,15] 1
y[31,15] 1
x[31,16] 1
y[31,16] 1
x[31,17] 1
y[31,17] 1
x[31,18] 1
y[31,18] 1
x[31,19] 1
y[31,19] 1
x[31,20] 1
y[31,20] 1
x[31,21] 1
y[31,21] 1
x[31,22] 1
y[31,22] 1
x[31,23] 1
y[31,23] 1
x[31,24] 1
y[31,24] 1
x[31,25] 1
y[31,25] 1
x[31,26] 1
y[31,26] 1
x[31,27] 1
y[31,27] 1
x[31,28] 1
y[31,28] 1
x[31,29] 1
y[31,29] 1
x[31,30] 1
y[31,30] 1
x[31,31] 1
y[31,31] 1
x[31,32] 1
y[31,32] 1
x[31,33] 1
y[31,33] 1
x[31,34] 1
y[31,34] 1
x[31,35] 1
y[31,35] 1
x[31,36] 1
y[31,36] 1
x[31,37] 1
y[31,37] 1
x[31,38] 1
y[31,38] 1
x[31,39] 1
y[31,39] 1
x[31,40] 1
y[31,40] 1
x[32,0] 0
y[32,0] 0
x[32,1] 0
y[32,1] 0
x[32,2] 0
y[32,2] 0
x[32,3] 0
y[32,3] 0
x[32,4] 0
y[32,4] 1
x[32,5] 0
y[32,5] 1
x[32,6] 0
y[32,6] 1
x[32,7] 0
y[32,7] 1
x[32,8] 0
y[32,8] 1
x[32,9] 0
y[32,9] 1
x[32,10] 0
y[32,10] 1
x[32,11] 0
y[32,11] 1
x[32,12] 0
y[32,12] 1
x[32,13] 0
y[32,13] 1
x[32,14] 0
y[32,14] 1
x[32,15] 0
y[32,15] 1
x[32,16] 1
y[32,16] 1
x[32,17] 1
y[32,17] 1
x[32,18] 1
y[32,18] 1
x[32,19] 1
y[32,19] 1
x[32,20] 1
y[32,20] 1
x[32,21] 1
y[32,21] 1
x[32,22] 1
y[32,22] 1
x[32,23] 1
y[32,23] 1
x[32,24] 1
y[32,24] 1
x[32,25] 1
y[32,25] 1
x[32,26] 1
y[32,26] 1
x[32,27] 1
y[32,27] 1
x[32,28] 1
y[32,28] 1
x[32,29] 1
y[32,29] 1
x[32,30] 1
y[32,30] 1
x[32,31] 1
y[32,31] 1
x[32,32] 1
y[32,32] 1
x[32,33] 1
y[32,33] 1
x[32,34] 1
y[32,34] 1
x[32,35] 1
y[32,35] 1
x[32,36] 1
y[32,36] 1
x[32,37] 1
y[32,37] 1
x[32,38] 1
y[32,38] 1
x[32,39] 1
y[32,39] 1
x[32,40] 1
y[32,40] 1
x[33,0] 0
y[33,0] 0
x[33,1] 0
y[33,1] 0
x[33,2] 0
y[33,2] 0
x[33,3] 0
y[33,3] 1
x[33,4] 1
y[33,4] 1
x[33,5] 1
y[33,5] 1
x[33,6] 1
y[33,6] 1
x[33,7] 1
y[33,7] 1
x[33,8] 1
y[33,8] 1
x[33,9] 1
y[33,9] 1
x[33,10] 1
y[33,10] 1
x[33,11] 1
y[33,11] 1
x[33,12] 1
y[33,12] 1
x[33,13] 1
y[33,13] 1
x[33,14] 1
y[33,14] 1
x[33,15] 1
y[33,15] 1
x[33,16] 1
y[33,16] 1
x[33,17] 1
y[33,17] 1
x[33,18] 1
y[33,18] 1
x[33,19] 1
y[33,19] 1
x[33,20] 1
y[33,20] 1
x[33,21] 1
y[33,21] 1
x[33,22] 1
y[33,22] 1
x[33,23] 1
y[33,23] 1
x[33,24] 1
y[33,24] 1
x[33,25] 1
y[33,25] 1
x[33,26] 1
y[33,26] 1
x[33,27] 1
y[33,27] 1
x[33,28] 1
y[33,28] 1
x[33,29] 1
y[33,29] 1
x[33,30] 1
y[33,30] 1
x[33,31] 1
y[33,31] 1
x[33,32] 1
y[33,32] 1
x[33,33] 1
y[33,33] 1
x[33,34] 1
y[33,34] 1
x[33,35] 1
y[33,35] 1
x[33,36] 1
y[33,36] 1
x[33,37] 1
y[33,37] 1
x[33,38] 1
y[33,38] 1
x[33,39] 1
y[33,39] 1
x[33,40] 1
y[33,40] 1
x[34,0] 0
y[34,0] 0
x[34,1] 0
y[34,1] 0
x[34,2] 0
y[34,2] 0
x[34,3] 0
y[34,3] 0
x[34,4] 0
y[34,4] 0
x[34,5] 0
y[34,5] 1
x[34,6] 0
y[34,6] 1
x[34,7] 0
y[34,7] 1
x[34,8] 0
y[34,8] 1
x[34,9] 0
y[34,9] 1
x[34,10] 0
y[34,10] 1
x[34,11] 0
y[34,11] 1
x[34,12] 0
y[34,12] 1
x[34,13] 0
y[34,13] 1
x[34,14] 0
y[34,14] 1
x[34,15] 0
y[34,15] 1
x[34,16] 0
y[34,16] 1
x[34,17] 0
y[34,17] 1
x[34,18] 0
y[34,18] 1
x[34,19] 0
y[34,19] 1
x[34,20] 0
y[34,20] 1
x[34,21] 0
y[34,21] 1
x[34,22] 0
y[34,22] 1
x[34,23] 0
y[34,23] 1
x[34,24] 0
y[34,24] 1
x[34,25] 0
y[34,25] 1
x[34,26] 0
y[34,26] 1
x[34,27] 0
y[34,27] 1
x[34,28] 0
y[34,28] 1
x[34,29] 0
y[34,29] 1
x[34,30] 0
y[34,30] 1
x[34,31] 0
y[34,31] 1
x[34,32] 0
y[34,32] 1
x[34,33] 0
y[34,33] 1
x[34,34] 0
y[34,34] 1
x[34,35] 0
y[34,35] 1
x[34,36] 0
y[34,36] 1
x[34,37] 0
y[34,37] 1
x[34,38] 0
y[34,38] 1
x[34,39] 1
y[34,39] 1
x[34,40] 1
y[34,40] 1
x[35,0] 1
y[35,0] 0
x[35,1] 1
y[35,1] 0
x[35,2] 1
y[35,2] 0
x[35,3] 1
y[35,3] 0
x[35,4] 1
y[35,4] 0
x[35,5] 1
y[35,5] 1
x[35,6] 1
y[35,6] 1
x[35,7] 1
y[35,7] 1
x[35,8] 1
y[35,8] 1
x[35,9] 1
y[35,9] 1
x[35,10] 1
y[35,10] 1
x[35,11] 1
y[35,11] 1
x[35,12] 1
y[35,12] 1
x[35,13] 1
y[35,13] 1
x[35,14] 1
y[35,14] 1
x[35,15] 1
y[35,15] 1
x[35,16] 1
y[35,16] 1
x[35,17] 1
y[35,17] 1
x[35,18] 1
y[35,18] 1
x[35,19] 1
y[35,19] 1
x[35,20] 1
y[35,20] 1
x[35,21] 1
y[35,21] 1
x[35,22] 1
y[35,22] 1
x[35,23] 1
y[35,23] 1
x[35,24] 1
y[35,24] 1
x[35,25] 1
y[35,25] 1
x[35,26] 1
y[35,26] 1
x[35,27] 1
y[35,27] 1
x[35,28] 1
y[35,28] 1
x[35,29] 1
y[35,29] 1
x[35,30] 1
y[35,30] 1
x[35,31] 1
y[35,31] 1
x[35,32] 1
y[35,32] 1
x[35,33] 1
y[35,33] 1
x[35,34] 1
y[35,34] 1
x[35,35] 1
y[35,35] 1
x[35,36] 1
y[35,36] 1
x[35,37] 1
y[35,37] 1
x[35,38] 1
y[35,38] 1
x[35,39] 1
y[35,39] 1
x[35,40] 1
y[35,40] 1
x[36,0] 0
y[36,0] 0
x[36,1] 0
y[36,1] 0
x[36,2] 0
y[36,2] 0
x[36,3] 0
y[36,3] 0
x[36,4] 0
y[36,4] 0
x[36,5] 0
y[36,5] 0
x[36,6] 1
y[36,6] 1
x[36,7] 1
y[36,7] 1
x[36,8] 1
y[36,8] 1
x[36,9] 1
y[36,9] 1
x[36,10] 1
y[36,10] 1
x[36,11] 1
y[36,11] 1
x[36,12] 1
y[36,12] 1
x[36,13] 1
y[36,13] 1
x[36,14] 1
y[36,14] 1
x[36,15] 1
y[36,15] 1
x[36,16] 1
y[36,16] 1
x[36,17] 1
y[36,17] 1
x[36,18] 1
y[36,18] 1
x[36,19] 1
y[36,19] 1
x[36,20] 1
y[36,20] 1
x[36,21] 1
y[36,21] 1
x[36,22] 1
y[36,22] 1
x[36,23] 1
y[36,23] 1
x[36,24] 1
y[36,24] 1
x[36,25] 1
y[36,25] 1
x[36,26] 1
y[36,26] 1
x[36,27] 1
y[36,27] 1
x[36,28] 1
y[36,28] 1
x[36,29] 1
y[36,29] 1
x[36,30] 1
y[36,30] 1
x[36,31] 1
y[36,31] 1
x[36,32] 1
y[36,32] 1
x[36,33] 1
y[36,33] 1
x[36,34] 1
y[36,34] 1
x[36,35] 1
y[36,35] 1
x[36,36] 1
y[36,36] 1
x[36,37] 1
y[36,37] 1
x[36,38] 1
y[36,38] 1
x[36,39] 1
y[36,39] 1
x[36,40] 1
y[36,40] 1
x[37,0] 0
y[37,0] 0
x[37,1] 0
y[37,1] 0
x[37,2] 0
y[37,2] 0
x[37,3] 0
y[37,3] 0
x[37,4] 0
y[37,4] 0
x[37,5] 0
y[37,5] 0
x[37,6] 0
y[37,6] 0
x[37,7] 0
y[37,7] 1
x[37,8] 0
y[37,8] 1
x[37,9] 1
y[37,9] 1
x[37,10] 1
y[37,10] 1
x[37,11] 1
y[37,11] 1
x[37,12] 1
y[37,12] 1
x[37,13] 1
y[37,13] 1
x[37,14] 1
y[37,14] 1
x[37,15] 1
y[37,15] 1
x[37,16] 1
y[37,16] 1
x[37,17] 1
y[37,17] 1
x[37,18] 1
y[37,18] 1
x[37,19] 1
y[37,19] 1
x[37,20] 1
y[37,20] 1
x[37,21] 1
y[37,21] 1
x[37,22] 1
y[37,22] 1
x[37,23] 1
y[37,23] 1
x[37,24] 1
y[37,24] 1
x[37,25] 1
y[37,25] 1
x[37,26] 1
y[37,26] 1
x[37,27] 1
y[37,27] 1
x[37,28] 1
y[37,28] 1
x[37,29] 1
y[37,29] 1
x[37,30] 1
y[37,30] 1
x[37,31] 1
y[37,31] 1
x[37,32] 1
y[37,32] 1
x[37,33] 1
y[37,33] 1
x[37,34] 1
y[37,34] 1
x[37,35] 1
y[37,35] 1
x[37,36] 1
y[37,36] 1
x[37,37] 1
y[37,37] 1
x[37,38] 1
y[37,38] 1
x[37,39] 1
y[37,39] 1
x[37,40] 1
y[37,40] 1
x[38,0] 0
y[38,0] 0
x[38,1] 0
y[38,1] 0
x[38,2] 0
y[38,2] 0
x[38,3] 0
y[38,3] 0
x[38,4] 0
y[38,4] 0
x[38,5] 0
y[38,5] 0
x[38,6] 0
y[38,6] 0
x[38,7] 0
y[38,7] 1
x[38,8] 0
y[38,8] 1
x[38,9] 0
y[38,9] 1
x[38,10] 0
y[38,10] 1
x[38,11] 0
y[38,11] 1
x[38,12] 0
y[38,12] 1
x[38,13] 0
y[38,13] 1
x[38,14] 1
y[38,14] 1
x[38,15] 1
y[38,15] 1
x[38,16] 1
y[38,16] 1
x[38,17] 1
y[38,17] 1
x[38,18] 1
y[38,18] 1
x[38,19] 1
y[38,19] 1
x[38,20] 1
y[38,20] 1
x[38,21] 1
y[38,21] 1
x[38,22] 1
y[38,22] 1
x[38,23] 1
y[38,23] 1
x[38,24] 1
y[38,24] 1
x[38,25] 1
y[38,25] 1
x[38,26] 1
y[38,26] 1
x[38,27] 1
y[38,27] 1
x[38,28] 1
y[38,28] 1
x[38,29] 1
y[38,29] 1
x[38,30] 1
y[38,30] 1
x[38,31] 1
y[38,31] 1
x[38,32] 1
y[38,32] 1
x[38,33] 1
y[38,33] 1
x[38,34] 1
y[38,34] 1
x[38,35] 1
y[38,35] 1
x[38,36] 1
y[38,36] 1
x[38,37] 1
y[38,37] 1
x[38,38] 1
y[38,38] 1
x[38,39] 1
y[38,39] 1
x[38,40] 1
y[38,40] 1
x[39,0] 0
y[39,0] 0
x[39,1] 0
y[39,1] 1
x[39,2] 1
y[39,2] 1
x[39,3] 1
y[39,3] 1
x[39,4] 1
y[39,4] 1
x[39,5] 1
y[39,5] 1
x[39,6] 1
y[39,6] 1
x[39,7] 1
y[39,7] 1
x[39,8] 1
y[39,8] 1
x[39,9] 1
y[39,9] 1
x[39,10] 1
y[39,10] 1
x[39,11] 1
y[39,11] 1
x[39,12] 1
y[39,12] 1
x[39,13] 1
y[39,13] 1
x[39,14] 1
y[39,14] 1
x[39,15] 1
y[39,15] 1
x[39,16] 1
y[39,16] 1
x[39,17] 1
y[39,17] 1
x[39,18] 1
y[39,18] 1
x[39,19] 1
y[39,19] 1
x[39,20] 1
y[39,20] 1
x[39,21] 1
y[39,21] 1
x[39,22] 1
y[39,22] 1
x[39,23] 1
y[39,23] 1
x[39,24] 1
y[39,24] 1
x[39,25] 1
y[39,25] 1
x[39,26] 1
y[39,26] 1
x[39,27] 1
y[39,27] 1
x[39,28] 1
y[39,28] 1
x[39,29] 1
y[39,29] 1
x[39,30] 1
y[39,30] 1
x[39,31] 1
y[39,31] 1
x[39,32] 1
y[39,32] 1
x[39,33] 1
y[39,33] 1
x[39,34] 1
y[39,34] 1
x[39,35] 1
y[39,35] 1
x[39,36] 1
y[39,36] 1
x[39,37] 1
y[39,37] 1
x[39,38] 1
y[39,38] 1
x[39,39] 1
y[39,39] 1
x[39,40] 1
y[39,40] 1
d 0
choice 0
